8
0 86 35 74 57 59 90 40 
86 0 51 85 61 100 40 63 
35 51 0 63 60 42 35 71 
74 85 63 0 19 87 18 66 
57 61 60 19 0 90 91 62 
59 100 42 87 90 0 0 25 
90 40 35 18 91 0 0 46 
40 63 71 66 62 25 46 0 
BRBRBRBR
